; COMMAND-LINE: --solve-int-as-bag
; EXPECT: sat
; DISABLE-TESTER: model
(set-logic ALL)
(set-info :status sat)
(set-option :incremental false)
(declare-fun x0 () Int)
(declare-fun x1 () Int)
(declare-fun x2 () Int)
(declare-fun x3 () Int)
(declare-fun x4 () Int)
(declare-fun x5 () Int)
(declare-fun x6 () Int)
(declare-fun x7 () Int)
(declare-fun x8 () Int)
(declare-fun x9 () Int)
(declare-fun x10 () Int)
(declare-fun x11 () Int)
(declare-fun x12 () Int)
(declare-fun x13 () Int)
(declare-fun x14 () Int)
(declare-fun x15 () Int)
(assert (= (* (* (* (* (* (* (* (* (* (* (* (* (* (* (* x0 x1) x2) x3) x4) x5) x6) x7) x8) x9) x10) x11) x12) x13) x14) x15) 7))
(check-sat)
